Chromium(IV) oxide
1.0
        4.4218001366         0.0000000000         0.0000000000
        0.0000000000         4.4218001366         0.0000000000
        0.0000000000         0.0000000000         2.9182000160
   Cr    O
    2    4
Direct
     0.000000000         0.000000000         0.000000000
     0.500000000         0.500000000         0.500000000
     0.300999999         0.300999999         0.000000000
     0.699000001         0.699000001         0.000000000
     0.199000001         0.800999999         0.500000000
     0.800999999         0.199000001         0.500000000
